n_res = 4;
rc = [ 17, 23, 20, 25 ];
n_tasks = 30;
d = [ 4, 10, 4, 5, 8, 2, 2, 10, 2, 6, 7, 2, 10, 4, 9, 2, 8, 6, 8, 4, 3, 1, 2, 4, 6, 5, 1, 6, 2, 5 ];
rr = [| 0, 10, 8, 0, 6, 0, 0, 9, 0, 1, 0, 0, 0, 0, 0, 0, 4, 0, 0, 5, 0, 6, 5, 5, 7, 0, 0, 0, 3, 4
      | 10, 3, 0, 2, 0, 0, 10, 0, 0, 0, 1, 0, 7, 0, 0, 1, 10, 0, 5, 0, 9, 7, 0, 0, 0, 0, 1, 4, 2, 0
      | 10, 4, 0, 1, 7, 4, 3, 0, 0, 0, 0, 3, 0, 0, 7, 2, 0, 0, 10, 0, 0, 0, 0, 1, 6, 10, 10, 6, 0, 0
      | 0, 0, 0, 3, 0, 6, 0, 10, 1, 6, 0, 0, 2, 8, 0, 4, 10, 6, 4, 6, 7, 0, 5, 5, 1, 0, 6, 0, 1, 1 |];
suc = [ { 2 }, 
        { 1 }, 
        { 4 }, 
        { 3 }, 
        { 6 }, 
        { 5 }, 
        { 8 }, 
        { 7 }, 
        { 10 }, 
        { 9 }, 
        { 12 }, 
        { 11 }, 
        { 14 }, 
        { 13 }, 
        { 16 }, 
        { 15 }, 
        { 18 }, 
        { 17 }, 
        { 20 }, 
        { 19 }, 
        { 22 }, 
        { 21 }, 
        { 24 }, 
        { 23 }, 
        { 26 }, 
        { 25 }, 
        { 28 }, 
        { 27 }, 
        { 30 }, 
        { 29 }]; 
